//Dat File

outFile="MPVSBPP_SET1_IT200_ITV2_NT1_TS3_WT1_VT1_REP1";
m=200;
o=42;
p=3;
numVTypes=1;

demand = [6, 8, 9, 1, 6, 1, 6, 7, 8, 4, 10, 1, 6, 1, 11, 10, 4, 8, 11, 7, 6, 2, 5, 8, 5, 2, 8, 2, 6, 5, 7, 5, 5, 7, 4, 11, 10, 9, 4, 9, 5, 6, 1, 8, 11, 10, 4, 7, 7, 2, 1, 10, 7, 11, 5, 9, 3, 9, 6, 6, 7, 10, 6, 2, 11, 9, 3, 8, 7, 4, 11, 3, 6, 7, 1, 8, 7, 10, 2, 3, 3, 7, 4, 6, 6, 3, 7, 6, 2, 8, 1, 10, 7, 6, 6, 1, 6, 5, 5, 8, 19, 14, 19, 18, 12, 18, 16, 12, 18, 19, 12, 14, 15, 16, 17, 13, 17, 14, 14, 15, 19, 12, 15, 12, 16, 19, 17, 19, 17, 17, 15, 14, 18, 13, 16, 18, 18, 12, 19, 15, 15, 16, 17, 12, 19, 13, 12, 13, 16, 18, 17, 19, 12, 16, 19, 14, 13, 17, 16, 15, 15, 17, 17, 18, 13, 14, 15, 16, 13, 17, 14, 13, 15, 18, 18, 14, 13, 13, 14, 18, 12, 13, 13, 12, 13, 19, 14, 17, 16, 14, 17, 12, 14, 18, 18, 12, 18, 15, 13, 19];
Depot_Cap = [30000, 30000, 30000];
Tarif = [10, 3, 7];
VeicVolume = [100];
VeicCost = [100];
VeicType = [1, 1, 1, 1, 1, 1, 1, 1, 1, 1, 1, 1, 1, 1, 1, 1, 1, 1, 1, 1, 1, 1, 1, 1, 1, 1, 1, 1, 1, 1, 1, 1, 1, 1, 1, 1, 1, 1, 1, 1, 1, 1];
Elect_vehicle = [[70, 100, 30], [70, 100, 30], [70, 100, 30], [70, 100, 30], [70, 100, 30], [70, 100, 30], [70, 100, 30], [70, 100, 30], [70, 100, 30], [70, 100, 30], [70, 100, 30], [70, 100, 30], [70, 100, 30], [70, 100, 30], [70, 100, 30], [70, 100, 30], [70, 100, 30], [70, 100, 30], [70, 100, 30], [70, 100, 30], [70, 100, 30], [70, 100, 30], [70, 100, 30], [70, 100, 30], [70, 100, 30], [70, 100, 30], [70, 100, 30], [70, 100, 30], [70, 100, 30], [70, 100, 30], [70, 100, 30], [70, 100, 30], [70, 100, 30], [70, 100, 30], [70, 100, 30], [70, 100, 30], [70, 100, 30], [70, 100, 30], [70, 100, 30], [70, 100, 30], [70, 100, 30], [70, 100, 30]];